# Objective value = 1.0162492121610228e+07
TransportationArdent1_DC1 0
TransportationArdent1_DC2 0
TransportationArdent1_DC3 0
TransportationArdent1_DC4 0
TransportationArdent1_DC5 0
TransportationArdent1_DC6 0
TransportationArdent1_DC7 0
TransportationArdent1_DC8 0
TransportationArdent1_DC9 0
TransportationArdent1_DC10 0
TransportationArdent1_DC11 0
TransportationArdent1_DC12 0
TransportationArdent1_DC13 0
TransportationArdent1_DC14 0
TransportationArdent1_DC15 0
TransportationArdent1_DC16 0
TransportationArdent2_DC1 0
TransportationArdent2_DC2 0
TransportationArdent2_DC3 0
TransportationArdent2_DC4 0
TransportationArdent2_DC5 0
TransportationArdent2_DC6 0
TransportationArdent2_DC7 0
TransportationArdent2_DC8 0
TransportationArdent2_DC9 0
TransportationArdent2_DC10 0
TransportationArdent2_DC11 0
TransportationArdent2_DC12 0
TransportationArdent2_DC13 0
TransportationArdent2_DC14 0
TransportationArdent2_DC15 0
TransportationArdent2_DC16 0
TransportationArdent3_DC1 0
TransportationArdent3_DC2 0
TransportationArdent3_DC3 0
TransportationArdent3_DC4 0
TransportationArdent3_DC5 0
TransportationArdent3_DC6 1
TransportationArdent3_DC7 0
TransportationArdent3_DC8 0
TransportationArdent3_DC9 0
TransportationArdent3_DC10 0
TransportationArdent3_DC11 0
TransportationArdent3_DC12 0
TransportationArdent3_DC13 0
TransportationArdent3_DC14 0
TransportationArdent3_DC15 0
TransportationArdent3_DC16 0
TransportationArdent4_DC1 0
TransportationArdent4_DC2 0
TransportationArdent4_DC3 0
TransportationArdent4_DC4 0
TransportationArdent4_DC5 0
TransportationArdent4_DC6 0
TransportationArdent4_DC7 0
TransportationArdent4_DC8 0
TransportationArdent4_DC9 1
TransportationArdent4_DC10 0
TransportationArdent4_DC11 0
TransportationArdent4_DC12 0
TransportationArdent4_DC13 0
TransportationArdent4_DC14 0
TransportationArdent4_DC15 0
TransportationArdent4_DC16 0
TransportationArdent5_DC1 0
TransportationArdent5_DC2 0
TransportationArdent5_DC3 0
TransportationArdent5_DC4 0
TransportationArdent5_DC5 0
TransportationArdent5_DC6 0
TransportationArdent5_DC7 0
TransportationArdent5_DC8 0
TransportationArdent5_DC9 0
TransportationArdent5_DC10 0
TransportationArdent5_DC11 0
TransportationArdent5_DC12 0
TransportationArdent5_DC13 0
TransportationArdent5_DC14 0
TransportationArdent5_DC15 0
TransportationArdent5_DC16 0
TransportationArdent6_DC1 0
TransportationArdent6_DC2 0
TransportationArdent6_DC3 0
TransportationArdent6_DC4 0
TransportationArdent6_DC5 0
TransportationArdent6_DC6 0
TransportationArdent6_DC7 0
TransportationArdent6_DC8 1
TransportationArdent6_DC9 0
TransportationArdent6_DC10 0
TransportationArdent6_DC11 0
TransportationArdent6_DC12 0
TransportationArdent6_DC13 0
TransportationArdent6_DC14 0
TransportationArdent6_DC15 0
TransportationArdent6_DC16 0
TransportationArdent7_DC1 0
TransportationArdent7_DC2 0
TransportationArdent7_DC3 0
TransportationArdent7_DC4 0
TransportationArdent7_DC5 0
TransportationArdent7_DC6 0
TransportationArdent7_DC7 0
TransportationArdent7_DC8 0
TransportationArdent7_DC9 0
TransportationArdent7_DC10 0
TransportationArdent7_DC11 0
TransportationArdent7_DC12 0
TransportationArdent7_DC13 0
TransportationArdent7_DC14 0
TransportationArdent7_DC15 0
TransportationArdent7_DC16 0
TransportationArdent8_DC1 0
TransportationArdent8_DC2 0
TransportationArdent8_DC3 0
TransportationArdent8_DC4 0
TransportationArdent8_DC5 0
TransportationArdent8_DC6 0
TransportationArdent8_DC7 0
TransportationArdent8_DC8 0
TransportationArdent8_DC9 0
TransportationArdent8_DC10 0
TransportationArdent8_DC11 0
TransportationArdent8_DC12 0
TransportationArdent8_DC13 0
TransportationArdent8_DC14 0
TransportationArdent8_DC15 0
TransportationArdent8_DC16 0
TransportationArdent9_DC1 0
TransportationArdent9_DC2 0
TransportationArdent9_DC3 0
TransportationArdent9_DC4 0
TransportationArdent9_DC5 0
TransportationArdent9_DC6 0
TransportationArdent9_DC7 0
TransportationArdent9_DC8 0
TransportationArdent9_DC9 0
TransportationArdent9_DC10 0
TransportationArdent9_DC11 0
TransportationArdent9_DC12 0
TransportationArdent9_DC13 0
TransportationArdent9_DC14 0
TransportationArdent9_DC15 0
TransportationArdent9_DC16 0
TransportationArdent10_DC1 0
TransportationArdent10_DC2 0
TransportationArdent10_DC3 0
TransportationArdent10_DC4 0
TransportationArdent10_DC5 0
TransportationArdent10_DC6 0
TransportationArdent10_DC7 0
TransportationArdent10_DC8 0
TransportationArdent10_DC9 0
TransportationArdent10_DC10 0
TransportationArdent10_DC11 0
TransportationArdent10_DC12 0
TransportationArdent10_DC13 0
TransportationArdent10_DC14 0
TransportationArdent10_DC15 0
TransportationArdent10_DC16 0
TransportationArdent11_DC1 0
TransportationArdent11_DC2 0
TransportationArdent11_DC3 0
TransportationArdent11_DC4 0
TransportationArdent11_DC5 0
TransportationArdent11_DC6 0
TransportationArdent11_DC7 0
TransportationArdent11_DC8 0
TransportationArdent11_DC9 0
TransportationArdent11_DC10 0
TransportationArdent11_DC11 0
TransportationArdent11_DC12 0
TransportationArdent11_DC13 0
TransportationArdent11_DC14 0
TransportationArdent11_DC15 0
TransportationArdent11_DC16 0
TransportationArdent12_DC1 0
TransportationArdent12_DC2 0
TransportationArdent12_DC3 0
TransportationArdent12_DC4 0
TransportationArdent12_DC5 0
TransportationArdent12_DC6 0
TransportationArdent12_DC7 0
TransportationArdent12_DC8 0
TransportationArdent12_DC9 0
TransportationArdent12_DC10 0
TransportationArdent12_DC11 0
TransportationArdent12_DC12 0
TransportationArdent12_DC13 0
TransportationArdent12_DC14 0
TransportationArdent12_DC15 0
TransportationArdent12_DC16 0
TransportationArdent13_DC1 0
TransportationArdent13_DC2 0
TransportationArdent13_DC3 0
TransportationArdent13_DC4 0
TransportationArdent13_DC5 0
TransportationArdent13_DC6 0
TransportationArdent13_DC7 0
TransportationArdent13_DC8 0
TransportationArdent13_DC9 0
TransportationArdent13_DC10 0
TransportationArdent13_DC11 0
TransportationArdent13_DC12 0
TransportationArdent13_DC13 0
TransportationArdent13_DC14 0
TransportationArdent13_DC15 0
TransportationArdent13_DC16 0
TransportationArdent14_DC1 0
TransportationArdent14_DC2 0
TransportationArdent14_DC3 0
TransportationArdent14_DC4 0
TransportationArdent14_DC5 0
TransportationArdent14_DC6 0
TransportationArdent14_DC7 0
TransportationArdent14_DC8 0
TransportationArdent14_DC9 0
TransportationArdent14_DC10 0
TransportationArdent14_DC11 0
TransportationArdent14_DC12 0
TransportationArdent14_DC13 0
TransportationArdent14_DC14 0
TransportationArdent14_DC15 0
TransportationArdent14_DC16 0
TransportationArdent15_DC1 0
TransportationArdent15_DC2 0
TransportationArdent15_DC3 0
TransportationArdent15_DC4 0
TransportationArdent15_DC5 0
TransportationArdent15_DC6 0
TransportationArdent15_DC7 0
TransportationArdent15_DC8 0
TransportationArdent15_DC9 0
TransportationArdent15_DC10 0
TransportationArdent15_DC11 0
TransportationArdent15_DC12 0
TransportationArdent15_DC13 0
TransportationArdent15_DC14 0
TransportationArdent15_DC15 0
TransportationArdent15_DC16 0
TransportationArdent16_DC1 0
TransportationArdent16_DC2 0
TransportationArdent16_DC3 0
TransportationArdent16_DC4 0
TransportationArdent16_DC5 0
TransportationArdent16_DC6 0
TransportationArdent16_DC7 0
TransportationArdent16_DC8 0
TransportationArdent16_DC9 0
TransportationArdent16_DC10 0
TransportationArdent16_DC11 0
TransportationArdent16_DC12 0
TransportationArdent16_DC13 0
TransportationArdent16_DC14 0
TransportationArdent16_DC15 0
TransportationArdent16_DC16 0
TransportationArdent17_DC1 0
TransportationArdent17_DC2 0
TransportationArdent17_DC3 0
TransportationArdent17_DC4 0
TransportationArdent17_DC5 0
TransportationArdent17_DC6 0
TransportationArdent17_DC7 0
TransportationArdent17_DC8 0
TransportationArdent17_DC9 0
TransportationArdent17_DC10 0
TransportationArdent17_DC11 0
TransportationArdent17_DC12 0
TransportationArdent17_DC13 0
TransportationArdent17_DC14 0
TransportationArdent17_DC15 0
TransportationArdent17_DC16 0
TransportationArdent18_DC1 0
TransportationArdent18_DC2 0
TransportationArdent18_DC3 0
TransportationArdent18_DC4 0
TransportationArdent18_DC5 0
TransportationArdent18_DC6 0
TransportationArdent18_DC7 0
TransportationArdent18_DC8 0
TransportationArdent18_DC9 0
TransportationArdent18_DC10 0
TransportationArdent18_DC11 0
TransportationArdent18_DC12 1
TransportationArdent18_DC13 1
TransportationArdent18_DC14 0
TransportationArdent18_DC15 0
TransportationArdent18_DC16 0
TransportationArdent19_DC1 0
TransportationArdent19_DC2 0
TransportationArdent19_DC3 0
TransportationArdent19_DC4 0
TransportationArdent19_DC5 0
TransportationArdent19_DC6 0
TransportationArdent19_DC7 0
TransportationArdent19_DC8 0
TransportationArdent19_DC9 0
TransportationArdent19_DC10 0
TransportationArdent19_DC11 0
TransportationArdent19_DC12 0
TransportationArdent19_DC13 0
TransportationArdent19_DC14 0
TransportationArdent19_DC15 0
TransportationArdent19_DC16 0
TransportationArdent20_DC1 0
TransportationArdent20_DC2 0
TransportationArdent20_DC3 0
TransportationArdent20_DC4 0
TransportationArdent20_DC5 0
TransportationArdent20_DC6 0
TransportationArdent20_DC7 1
TransportationArdent20_DC8 0
TransportationArdent20_DC9 0
TransportationArdent20_DC10 0
TransportationArdent20_DC11 0
TransportationArdent20_DC12 0
TransportationArdent20_DC13 0
TransportationArdent20_DC14 0
TransportationArdent20_DC15 0
TransportationArdent20_DC16 0
TransportationArdent21_DC1 0
TransportationArdent21_DC2 0
TransportationArdent21_DC3 0
TransportationArdent21_DC4 0
TransportationArdent21_DC5 0
TransportationArdent21_DC6 0
TransportationArdent21_DC7 0
TransportationArdent21_DC8 0
TransportationArdent21_DC9 0
TransportationArdent21_DC10 0
TransportationArdent21_DC11 0
TransportationArdent21_DC12 0
TransportationArdent21_DC13 0
TransportationArdent21_DC14 0
TransportationArdent21_DC15 0
TransportationArdent21_DC16 0
TransportationArdent22_DC1 0
TransportationArdent22_DC2 0
TransportationArdent22_DC3 0
TransportationArdent22_DC4 0
TransportationArdent22_DC5 0
TransportationArdent22_DC6 0
TransportationArdent22_DC7 0
TransportationArdent22_DC8 0
TransportationArdent22_DC9 0
TransportationArdent22_DC10 0
TransportationArdent22_DC11 0
TransportationArdent22_DC12 0
TransportationArdent22_DC13 0
TransportationArdent22_DC14 0
TransportationArdent22_DC15 0
TransportationArdent22_DC16 0
TransportationArdent23_DC1 0
TransportationArdent23_DC2 0
TransportationArdent23_DC3 0
TransportationArdent23_DC4 0
TransportationArdent23_DC5 0
TransportationArdent23_DC6 0
TransportationArdent23_DC7 0
TransportationArdent23_DC8 0
TransportationArdent23_DC9 0
TransportationArdent23_DC10 0
TransportationArdent23_DC11 0
TransportationArdent23_DC12 0
TransportationArdent23_DC13 0
TransportationArdent23_DC14 0
TransportationArdent23_DC15 0
TransportationArdent23_DC16 0
TransportationArdent24_DC1 0
TransportationArdent24_DC2 0
TransportationArdent24_DC3 0
TransportationArdent24_DC4 0
TransportationArdent24_DC5 0
TransportationArdent24_DC6 0
TransportationArdent24_DC7 0
TransportationArdent24_DC8 0
TransportationArdent24_DC9 0
TransportationArdent24_DC10 0
TransportationArdent24_DC11 0
TransportationArdent24_DC12 0
TransportationArdent24_DC13 0
TransportationArdent24_DC14 0
TransportationArdent24_DC15 0
TransportationArdent24_DC16 0
TransportationArdent25_DC1 0
TransportationArdent25_DC2 0
TransportationArdent25_DC3 0
TransportationArdent25_DC4 0
TransportationArdent25_DC5 0
TransportationArdent25_DC6 0
TransportationArdent25_DC7 0
TransportationArdent25_DC8 0
TransportationArdent25_DC9 0
TransportationArdent25_DC10 0
TransportationArdent25_DC11 0
TransportationArdent25_DC12 0
TransportationArdent25_DC13 0
TransportationArdent25_DC14 0
TransportationArdent25_DC15 0
TransportationArdent25_DC16 0
TransportationArdent26_DC1 0
TransportationArdent26_DC2 0
TransportationArdent26_DC3 0
TransportationArdent26_DC4 0
TransportationArdent26_DC5 0
TransportationArdent26_DC6 0
TransportationArdent26_DC7 0
TransportationArdent26_DC8 0
TransportationArdent26_DC9 0
TransportationArdent26_DC10 1
TransportationArdent26_DC11 1
TransportationArdent26_DC12 0
TransportationArdent26_DC13 0
TransportationArdent26_DC14 0
TransportationArdent26_DC15 0
TransportationArdent26_DC16 0
TransportationArdent27_DC1 0
TransportationArdent27_DC2 0
TransportationArdent27_DC3 0
TransportationArdent27_DC4 0
TransportationArdent27_DC5 0
TransportationArdent27_DC6 0
TransportationArdent27_DC7 0
TransportationArdent27_DC8 0
TransportationArdent27_DC9 0
TransportationArdent27_DC10 0
TransportationArdent27_DC11 0
TransportationArdent27_DC12 0
TransportationArdent27_DC13 0
TransportationArdent27_DC14 0
TransportationArdent27_DC15 0
TransportationArdent27_DC16 0
TransportationArdent28_DC1 0
TransportationArdent28_DC2 0
TransportationArdent28_DC3 0
TransportationArdent28_DC4 0
TransportationArdent28_DC5 0
TransportationArdent28_DC6 0
TransportationArdent28_DC7 0
TransportationArdent28_DC8 0
TransportationArdent28_DC9 0
TransportationArdent28_DC10 0
TransportationArdent28_DC11 0
TransportationArdent28_DC12 0
TransportationArdent28_DC13 0
TransportationArdent28_DC14 0
TransportationArdent28_DC15 0
TransportationArdent28_DC16 0
TransportationArdent29_DC1 0
TransportationArdent29_DC2 0
TransportationArdent29_DC3 0
TransportationArdent29_DC4 0
TransportationArdent29_DC5 0
TransportationArdent29_DC6 0
TransportationArdent29_DC7 0
TransportationArdent29_DC8 0
TransportationArdent29_DC9 0
TransportationArdent29_DC10 0
TransportationArdent29_DC11 0
TransportationArdent29_DC12 0
TransportationArdent29_DC13 0
TransportationArdent29_DC14 0
TransportationArdent29_DC15 0
TransportationArdent29_DC16 0
TransportationArdent30_DC1 0
TransportationArdent30_DC2 0
TransportationArdent30_DC3 0
TransportationArdent30_DC4 0
TransportationArdent30_DC5 0
TransportationArdent30_DC6 0
TransportationArdent30_DC7 0
TransportationArdent30_DC8 0
TransportationArdent30_DC9 0
TransportationArdent30_DC10 0
TransportationArdent30_DC11 0
TransportationArdent30_DC12 0
TransportationArdent30_DC13 0
TransportationArdent30_DC14 0
TransportationArdent30_DC15 0
TransportationArdent30_DC16 0
TransportationArdent31_DC1 0
TransportationArdent31_DC2 0
TransportationArdent31_DC3 0
TransportationArdent31_DC4 0
TransportationArdent31_DC5 0
TransportationArdent31_DC6 0
TransportationArdent31_DC7 0
TransportationArdent31_DC8 0
TransportationArdent31_DC9 0
TransportationArdent31_DC10 0
TransportationArdent31_DC11 0
TransportationArdent31_DC12 0
TransportationArdent31_DC13 0
TransportationArdent31_DC14 0
TransportationArdent31_DC15 0
TransportationArdent31_DC16 0
TransportationArdent32_DC1 0
TransportationArdent32_DC2 0
TransportationArdent32_DC3 0
TransportationArdent32_DC4 0
TransportationArdent32_DC5 0
TransportationArdent32_DC6 0
TransportationArdent32_DC7 0
TransportationArdent32_DC8 0
TransportationArdent32_DC9 0
TransportationArdent32_DC10 0
TransportationArdent32_DC11 0
TransportationArdent32_DC12 0
TransportationArdent32_DC13 0
TransportationArdent32_DC14 0
TransportationArdent32_DC15 0
TransportationArdent32_DC16 0
TransportationArdent33_DC1 1
TransportationArdent33_DC2 1
TransportationArdent33_DC3 0
TransportationArdent33_DC4 1
TransportationArdent33_DC5 0
TransportationArdent33_DC6 0
TransportationArdent33_DC7 0
TransportationArdent33_DC8 0
TransportationArdent33_DC9 0
TransportationArdent33_DC10 0
TransportationArdent33_DC11 0
TransportationArdent33_DC12 0
TransportationArdent33_DC13 0
TransportationArdent33_DC14 0
TransportationArdent33_DC15 0
TransportationArdent33_DC16 0
TransportationArdent34_DC1 0
TransportationArdent34_DC2 0
TransportationArdent34_DC3 0
TransportationArdent34_DC4 0
TransportationArdent34_DC5 0
TransportationArdent34_DC6 0
TransportationArdent34_DC7 0
TransportationArdent34_DC8 0
TransportationArdent34_DC9 0
TransportationArdent34_DC10 0
TransportationArdent34_DC11 0
TransportationArdent34_DC12 0
TransportationArdent34_DC13 0
TransportationArdent34_DC14 0
TransportationArdent34_DC15 0
TransportationArdent34_DC16 0
TransportationArdent35_DC1 0
TransportationArdent35_DC2 0
TransportationArdent35_DC3 1
TransportationArdent35_DC4 0
TransportationArdent35_DC5 1
TransportationArdent35_DC6 0
TransportationArdent35_DC7 0
TransportationArdent35_DC8 0
TransportationArdent35_DC9 0
TransportationArdent35_DC10 0
TransportationArdent35_DC11 0
TransportationArdent35_DC12 0
TransportationArdent35_DC13 0
TransportationArdent35_DC14 0
TransportationArdent35_DC15 0
TransportationArdent35_DC16 0
TransportationArdent36_DC1 0
TransportationArdent36_DC2 0
TransportationArdent36_DC3 0
TransportationArdent36_DC4 0
TransportationArdent36_DC5 0
TransportationArdent36_DC6 0
TransportationArdent36_DC7 0
TransportationArdent36_DC8 0
TransportationArdent36_DC9 0
TransportationArdent36_DC10 0
TransportationArdent36_DC11 0
TransportationArdent36_DC12 0
TransportationArdent36_DC13 0
TransportationArdent36_DC14 0
TransportationArdent36_DC15 0
TransportationArdent36_DC16 0
TransportationArdent37_DC1 0
TransportationArdent37_DC2 0
TransportationArdent37_DC3 0
TransportationArdent37_DC4 0
TransportationArdent37_DC5 0
TransportationArdent37_DC6 0
TransportationArdent37_DC7 0
TransportationArdent37_DC8 0
TransportationArdent37_DC9 0
TransportationArdent37_DC10 0
TransportationArdent37_DC11 0
TransportationArdent37_DC12 0
TransportationArdent37_DC13 0
TransportationArdent37_DC14 0
TransportationArdent37_DC15 0
TransportationArdent37_DC16 0
TransportationArdent38_DC1 0
TransportationArdent38_DC2 0
TransportationArdent38_DC3 0
TransportationArdent38_DC4 0
TransportationArdent38_DC5 0
TransportationArdent38_DC6 0
TransportationArdent38_DC7 0
TransportationArdent38_DC8 0
TransportationArdent38_DC9 0
TransportationArdent38_DC10 0
TransportationArdent38_DC11 0
TransportationArdent38_DC12 0
TransportationArdent38_DC13 0
TransportationArdent38_DC14 1
TransportationArdent38_DC15 1
TransportationArdent38_DC16 1
cost_Ardent1 0
cost_Ardent2 0
cost_Ardent3 1
cost_Ardent4 1
cost_Ardent5 0
cost_Ardent6 1
cost_Ardent7 0
cost_Ardent8 0
cost_Ardent9 0
cost_Ardent10 0
cost_Ardent11 0
cost_Ardent12 0
cost_Ardent13 0
cost_Ardent14 0
cost_Ardent15 0
cost_Ardent16 0
cost_Ardent17 0
cost_Ardent18 1
cost_Ardent19 0
cost_Ardent20 1
cost_Ardent21 0
cost_Ardent22 0
cost_Ardent23 0
cost_Ardent24 0
cost_Ardent25 0
cost_Ardent26 1
cost_Ardent27 0
cost_Ardent28 0
cost_Ardent29 0
cost_Ardent30 0
cost_Ardent31 0
cost_Ardent32 0
cost_Ardent33 1
cost_Ardent34 0
cost_Ardent35 1
cost_Ardent36 0
cost_Ardent37 0
cost_Ardent38 1
